M = 99999999.0;
numWorkers = 15;
numRoles = 5;
numNodes = 40;
wStart = [0, 0, 0, 0, 0, 0, 0, 0, 0, 0, 0, 0, 0, 0, 0, 30, 210, 210, 240, 150, 150, 30, 90, 390, 150, 480, 480, 480, 480, 480, 480, 480, 480, 480, 480, 480, 480, 480, 480, 480];
wEnd = [0, 0, 0, 0, 0, 0, 0, 0, 0, 0, 0, 0, 0, 0, 0, 390, 270, 390, 420, 360, 330, 330, 390, 420, 210, 480, 480, 480, 480, 480, 480, 480, 480, 480, 480, 480, 480, 480, 480, 480];
p = [0, 0, 0, 0, 0, 0, 0, 0, 0, 0, 0, 0, 0, 0, 0, 65.13992007689072, 15.766531112959933, 62.57988360270625, 47.97936736489013, 25.09744143835864, 53.4610656884538, 17.373770617378913, 18.52633773512789, 65.23647239396993, 23.662234557519625, 0, 0, 0, 0, 0, 0, 0, 0, 0, 0, 0, 0, 0, 0, 0];
e = [[1, 0, 0, 1, 0], [0, 1, 0, 1, 0], [0, 0, 0, 0, 1], [0, 1, 0, 0, 0], [0, 0, 1, 0, 0], [0, 0, 0, 0, 1], [1, 0, 0, 0, 0], [0, 0, 0, 0, 1], [0, 0, 1, 0, 0], [0, 0, 1, 0, 0], [0, 1, 0, 0, 0], [0, 0, 0, 1, 0], [1, 0, 0, 0, 0], [1, 0, 0, 0, 0], [0, 1, 0, 0, 0]];
d = [[1, 1, 1, 1, 1, 1, 1, 0, 1, 1], [0, 0, 0, 3, 0, 1, 1, 1, 0, 3], [0, 0, 0, 0, 0, 0, 0, 2, 0, 0], [2, 2, 2, 1, 2, 2, 2, 1, 2, 1], [0, 0, 0, 0, 0, 1, 1, 0, 0, 0]];
r = [4050, 1278, 1372, 3316, 643, 2543, 3675, 2492, 848, 4090];
g = [[0, 0, 0, 0, 0, 0, 0, 0, 0, 0], [0, 0, 0, 0, 0, 0, 0, 0, 0, 0], [0, 0, 0, 0, 0, 0, 0, 0, 0, 0], [0, 0, 0, 0, 0, 0, 0, 0, 0, 0], [0, 0, 0, 0, 0, 0, 0, 0, 0, 0], [0, 0, 0, 0, 0, 0, 0, 0, 0, 0], [0, 0, 0, 0, 0, 0, 0, 0, 0, 0], [0, 0, 0, 0, 0, 0, 0, 0, 0, 0], [0, 0, 0, 0, 0, 0, 0, 0, 0, 0], [0, 0, 0, 0, 0, 0, 0, 0, 0, 0]];
t = [[0.0, 0.0, 0.0, 0.0, 0.0, 0.0, 0.0, 0.0, 0.0, 0.0, 0.0, 0.0, 0.0, 0.0, 0.0, 18.407128085619433, 13.64823053555322, 17.297505769473204, 20.617727332515294, 6.167894161051753, 42.377760388626896, 52.08751459940198, 27.175083009609324, 8.027567409185766, 36.44926495595307, 0.0, 0.0, 0.0, 0.0, 0.0, 0.0, 0.0, 0.0, 0.0, 0.0, 0.0, 0.0, 0.0, 0.0, 0.0], [0.0, 0.0, 0.0, 0.0, 0.0, 0.0, 0.0, 0.0, 0.0, 0.0, 0.0, 0.0, 0.0, 0.0, 0.0, 18.407128085619433, 13.64823053555322, 17.297505769473204, 20.617727332515294, 6.167894161051753, 42.377760388626896, 52.08751459940198, 27.175083009609324, 8.027567409185766, 36.44926495595307, 0.0, 0.0, 0.0, 0.0, 0.0, 0.0, 0.0, 0.0, 0.0, 0.0, 0.0, 0.0, 0.0, 0.0, 0.0], [0.0, 0.0, 0.0, 0.0, 0.0, 0.0, 0.0, 0.0, 0.0, 0.0, 0.0, 0.0, 0.0, 0.0, 0.0, 18.407128085619433, 13.64823053555322, 17.297505769473204, 20.617727332515294, 6.167894161051753, 42.377760388626896, 52.08751459940198, 27.175083009609324, 8.027567409185766, 36.44926495595307, 0.0, 0.0, 0.0, 0.0, 0.0, 0.0, 0.0, 0.0, 0.0, 0.0, 0.0, 0.0, 0.0, 0.0, 0.0], [0.0, 0.0, 0.0, 0.0, 0.0, 0.0, 0.0, 0.0, 0.0, 0.0, 0.0, 0.0, 0.0, 0.0, 0.0, 18.407128085619433, 13.64823053555322, 17.297505769473204, 20.617727332515294, 6.167894161051753, 42.377760388626896, 52.08751459940198, 27.175083009609324, 8.027567409185766, 36.44926495595307, 0.0, 0.0, 0.0, 0.0, 0.0, 0.0, 0.0, 0.0, 0.0, 0.0, 0.0, 0.0, 0.0, 0.0, 0.0], [0.0, 0.0, 0.0, 0.0, 0.0, 0.0, 0.0, 0.0, 0.0, 0.0, 0.0, 0.0, 0.0, 0.0, 0.0, 18.407128085619433, 13.64823053555322, 17.297505769473204, 20.617727332515294, 6.167894161051753, 42.377760388626896, 52.08751459940198, 27.175083009609324, 8.027567409185766, 36.44926495595307, 0.0, 0.0, 0.0, 0.0, 0.0, 0.0, 0.0, 0.0, 0.0, 0.0, 0.0, 0.0, 0.0, 0.0, 0.0], [0.0, 0.0, 0.0, 0.0, 0.0, 0.0, 0.0, 0.0, 0.0, 0.0, 0.0, 0.0, 0.0, 0.0, 0.0, 18.407128085619433, 13.64823053555322, 17.297505769473204, 20.617727332515294, 6.167894161051753, 42.377760388626896, 52.08751459940198, 27.175083009609324, 8.027567409185766, 36.44926495595307, 0.0, 0.0, 0.0, 0.0, 0.0, 0.0, 0.0, 0.0, 0.0, 0.0, 0.0, 0.0, 0.0, 0.0, 0.0], [0.0, 0.0, 0.0, 0.0, 0.0, 0.0, 0.0, 0.0, 0.0, 0.0, 0.0, 0.0, 0.0, 0.0, 0.0, 18.407128085619433, 13.64823053555322, 17.297505769473204, 20.617727332515294, 6.167894161051753, 42.377760388626896, 52.08751459940198, 27.175083009609324, 8.027567409185766, 36.44926495595307, 0.0, 0.0, 0.0, 0.0, 0.0, 0.0, 0.0, 0.0, 0.0, 0.0, 0.0, 0.0, 0.0, 0.0, 0.0], [0.0, 0.0, 0.0, 0.0, 0.0, 0.0, 0.0, 0.0, 0.0, 0.0, 0.0, 0.0, 0.0, 0.0, 0.0, 18.407128085619433, 13.64823053555322, 17.297505769473204, 20.617727332515294, 6.167894161051753, 42.377760388626896, 52.08751459940198, 27.175083009609324, 8.027567409185766, 36.44926495595307, 0.0, 0.0, 0.0, 0.0, 0.0, 0.0, 0.0, 0.0, 0.0, 0.0, 0.0, 0.0, 0.0, 0.0, 0.0], [0.0, 0.0, 0.0, 0.0, 0.0, 0.0, 0.0, 0.0, 0.0, 0.0, 0.0, 0.0, 0.0, 0.0, 0.0, 18.407128085619433, 13.64823053555322, 17.297505769473204, 20.617727332515294, 6.167894161051753, 42.377760388626896, 52.08751459940198, 27.175083009609324, 8.027567409185766, 36.44926495595307, 0.0, 0.0, 0.0, 0.0, 0.0, 0.0, 0.0, 0.0, 0.0, 0.0, 0.0, 0.0, 0.0, 0.0, 0.0], [0.0, 0.0, 0.0, 0.0, 0.0, 0.0, 0.0, 0.0, 0.0, 0.0, 0.0, 0.0, 0.0, 0.0, 0.0, 18.407128085619433, 13.64823053555322, 17.297505769473204, 20.617727332515294, 6.167894161051753, 42.377760388626896, 52.08751459940198, 27.175083009609324, 8.027567409185766, 36.44926495595307, 0.0, 0.0, 0.0, 0.0, 0.0, 0.0, 0.0, 0.0, 0.0, 0.0, 0.0, 0.0, 0.0, 0.0, 0.0], [0.0, 0.0, 0.0, 0.0, 0.0, 0.0, 0.0, 0.0, 0.0, 0.0, 0.0, 0.0, 0.0, 0.0, 0.0, 18.407128085619433, 13.64823053555322, 17.297505769473204, 20.617727332515294, 6.167894161051753, 42.377760388626896, 52.08751459940198, 27.175083009609324, 8.027567409185766, 36.44926495595307, 0.0, 0.0, 0.0, 0.0, 0.0, 0.0, 0.0, 0.0, 0.0, 0.0, 0.0, 0.0, 0.0, 0.0, 0.0], [0.0, 0.0, 0.0, 0.0, 0.0, 0.0, 0.0, 0.0, 0.0, 0.0, 0.0, 0.0, 0.0, 0.0, 0.0, 18.407128085619433, 13.64823053555322, 17.297505769473204, 20.617727332515294, 6.167894161051753, 42.377760388626896, 52.08751459940198, 27.175083009609324, 8.027567409185766, 36.44926495595307, 0.0, 0.0, 0.0, 0.0, 0.0, 0.0, 0.0, 0.0, 0.0, 0.0, 0.0, 0.0, 0.0, 0.0, 0.0], [0.0, 0.0, 0.0, 0.0, 0.0, 0.0, 0.0, 0.0, 0.0, 0.0, 0.0, 0.0, 0.0, 0.0, 0.0, 18.407128085619433, 13.64823053555322, 17.297505769473204, 20.617727332515294, 6.167894161051753, 42.377760388626896, 52.08751459940198, 27.175083009609324, 8.027567409185766, 36.44926495595307, 0.0, 0.0, 0.0, 0.0, 0.0, 0.0, 0.0, 0.0, 0.0, 0.0, 0.0, 0.0, 0.0, 0.0, 0.0], [0.0, 0.0, 0.0, 0.0, 0.0, 0.0, 0.0, 0.0, 0.0, 0.0, 0.0, 0.0, 0.0, 0.0, 0.0, 18.407128085619433, 13.64823053555322, 17.297505769473204, 20.617727332515294, 6.167894161051753, 42.377760388626896, 52.08751459940198, 27.175083009609324, 8.027567409185766, 36.44926495595307, 0.0, 0.0, 0.0, 0.0, 0.0, 0.0, 0.0, 0.0, 0.0, 0.0, 0.0, 0.0, 0.0, 0.0, 0.0], [0.0, 0.0, 0.0, 0.0, 0.0, 0.0, 0.0, 0.0, 0.0, 0.0, 0.0, 0.0, 0.0, 0.0, 0.0, 18.407128085619433, 13.64823053555322, 17.297505769473204, 20.617727332515294, 6.167894161051753, 42.377760388626896, 52.08751459940198, 27.175083009609324, 8.027567409185766, 36.44926495595307, 0.0, 0.0, 0.0, 0.0, 0.0, 0.0, 0.0, 0.0, 0.0, 0.0, 0.0, 0.0, 0.0, 0.0, 0.0], [18.407128085619433, 18.407128085619433, 18.407128085619433, 18.407128085619433, 18.407128085619433, 18.407128085619433, 18.407128085619433, 18.407128085619433, 18.407128085619433, 18.407128085619433, 18.407128085619433, 18.407128085619433, 18.407128085619433, 18.407128085619433, 18.407128085619433, 0.0, 31.3876419976322, 4.456909501234881, 38.67468658201325, 17.532043463662852, 45.28937724113305, 55.39255452465263, 11.953356378697649, 24.699711069392656, 54.22940596968524, 18.407128085619433, 18.407128085619433, 18.407128085619433, 18.407128085619433, 18.407128085619433, 18.407128085619433, 18.407128085619433, 18.407128085619433, 18.407128085619433, 18.407128085619433, 18.407128085619433, 18.407128085619433, 18.407128085619433, 18.407128085619433, 18.407128085619433], [13.64823053555322, 13.64823053555322, 13.64823053555322, 13.64823053555322, 13.64823053555322, 13.64823053555322, 13.64823053555322, 13.64823053555322, 13.64823053555322, 13.64823053555322, 13.64823053555322, 13.64823053555322, 13.64823053555322, 13.64823053555322, 13.64823053555322, 31.3876419976322, 0.0, 29.319155026063203, 13.210261249316126, 18.32798494489185, 50.031080909878916, 58.8186242062993, 40.81271937478028, 13.16085220133257, 27.86102865810991, 13.64823053555322, 13.64823053555322, 13.64823053555322, 13.64823053555322, 13.64823053555322, 13.64823053555322, 13.64823053555322, 13.64823053555322, 13.64823053555322, 13.64823053555322, 13.64823053555322, 13.64823053555322, 13.64823053555322, 13.64823053555322, 13.64823053555322], [17.297505769473204, 17.297505769473204, 17.297505769473204, 17.297505769473204, 17.297505769473204, 17.297505769473204, 17.297505769473204, 17.297505769473204, 17.297505769473204, 17.297505769473204, 17.297505769473204, 17.297505769473204, 17.297505769473204, 17.297505769473204, 17.297505769473204, 4.456909501234881, 29.319155026063203, 0.0, 37.9120402790008, 17.962033314695354, 48.68664979096563, 58.82154884828603, 16.307343643828453, 24.493704632040615, 53.710954085601124, 17.297505769473204, 17.297505769473204, 17.297505769473204, 17.297505769473204, 17.297505769473204, 17.297505769473204, 17.297505769473204, 17.297505769473204, 17.297505769473204, 17.297505769473204, 17.297505769473204, 17.297505769473204, 17.297505769473204, 17.297505769473204, 17.297505769473204], [20.617727332515294, 20.617727332515294, 20.617727332515294, 20.617727332515294, 20.617727332515294, 20.617727332515294, 20.617727332515294, 20.617727332515294, 20.617727332515294, 20.617727332515294, 20.617727332515294, 20.617727332515294, 20.617727332515294, 20.617727332515294, 20.617727332515294, 38.67468658201325, 13.210261249316126, 37.9120402790008, 0.0, 21.7700218827347, 42.99073676984507, 50.50335219003305, 45.45865557954304, 14.26340133893803, 15.895806463742687, 20.617727332515294, 20.617727332515294, 20.617727332515294, 20.617727332515294, 20.617727332515294, 20.617727332515294, 20.617727332515294, 20.617727332515294, 20.617727332515294, 20.617727332515294, 20.617727332515294, 20.617727332515294, 20.617727332515294, 20.617727332515294, 20.617727332515294], [6.167894161051753, 6.167894161051753, 6.167894161051753, 6.167894161051753, 6.167894161051753, 6.167894161051753, 6.167894161051753, 6.167894161051753, 6.167894161051753, 6.167894161051753, 6.167894161051753, 6.167894161051753, 6.167894161051753, 6.167894161051753, 6.167894161051753, 17.532043463662852, 18.32798494489185, 17.962033314695354, 21.7700218827347, 0.0, 36.44698521046076, 46.272532651319, 23.80548176258485, 7.506620606358926, 36.90890406589085, 6.167894161051753, 6.167894161051753, 6.167894161051753, 6.167894161051753, 6.167894161051753, 6.167894161051753, 6.167894161051753, 6.167894161051753, 6.167894161051753, 6.167894161051753, 6.167894161051753, 6.167894161051753, 6.167894161051753, 6.167894161051753, 6.167894161051753], [42.377760388626896, 42.377760388626896, 42.377760388626896, 42.377760388626896, 42.377760388626896, 42.377760388626896, 42.377760388626896, 42.377760388626896, 42.377760388626896, 42.377760388626896, 42.377760388626896, 42.377760388626896, 42.377760388626896, 42.377760388626896, 42.377760388626896, 45.28937724113305, 50.031080909878916, 48.68664979096563, 42.99073676984507, 36.44698521046076, 0.0, 10.13912224625852, 39.96944630222799, 37.42321984771719, 48.05376340656125, 42.377760388626896, 42.377760388626896, 42.377760388626896, 42.377760388626896, 42.377760388626896, 42.377760388626896, 42.377760388626896, 42.377760388626896, 42.377760388626896, 42.377760388626896, 42.377760388626896, 42.377760388626896, 42.377760388626896, 42.377760388626896, 42.377760388626896], [52.08751459940198, 52.08751459940198, 52.08751459940198, 52.08751459940198, 52.08751459940198, 52.08751459940198, 52.08751459940198, 52.08751459940198, 52.08751459940198, 52.08751459940198, 52.08751459940198, 52.08751459940198, 52.08751459940198, 52.08751459940198, 52.08751459940198, 55.39255452465263, 58.8186242062993, 58.82154884828603, 50.50335219003305, 46.272532651319, 10.13912224625852, 0.0, 49.62853348254558, 46.63889041981812, 53.04783629456515, 52.08751459940198, 52.08751459940198, 52.08751459940198, 52.08751459940198, 52.08751459940198, 52.08751459940198, 52.08751459940198, 52.08751459940198, 52.08751459940198, 52.08751459940198, 52.08751459940198, 52.08751459940198, 52.08751459940198, 52.08751459940198, 52.08751459940198], [27.175083009609324, 27.175083009609324, 27.175083009609324, 27.175083009609324, 27.175083009609324, 27.175083009609324, 27.175083009609324, 27.175083009609324, 27.175083009609324, 27.175083009609324, 27.175083009609324, 27.175083009609324, 27.175083009609324, 27.175083009609324, 27.175083009609324, 11.953356378697649, 40.81271937478028, 16.307343643828453, 45.45865557954304, 23.80548176258485, 39.96944630222799, 49.62853348254558, 0.0, 31.253392873568213, 60.0, 27.175083009609324, 27.175083009609324, 27.175083009609324, 27.175083009609324, 27.175083009609324, 27.175083009609324, 27.175083009609324, 27.175083009609324, 27.175083009609324, 27.175083009609324, 27.175083009609324, 27.175083009609324, 27.175083009609324, 27.175083009609324, 27.175083009609324], [8.027567409185766, 8.027567409185766, 8.027567409185766, 8.027567409185766, 8.027567409185766, 8.027567409185766, 8.027567409185766, 8.027567409185766, 8.027567409185766, 8.027567409185766, 8.027567409185766, 8.027567409185766, 8.027567409185766, 8.027567409185766, 8.027567409185766, 24.699711069392656, 13.16085220133257, 24.493704632040615, 14.26340133893803, 7.506620606358926, 37.42321984771719, 46.63889041981812, 31.253392873568213, 0.0, 29.539539912766575, 8.027567409185766, 8.027567409185766, 8.027567409185766, 8.027567409185766, 8.027567409185766, 8.027567409185766, 8.027567409185766, 8.027567409185766, 8.027567409185766, 8.027567409185766, 8.027567409185766, 8.027567409185766, 8.027567409185766, 8.027567409185766, 8.027567409185766], [36.44926495595307, 36.44926495595307, 36.44926495595307, 36.44926495595307, 36.44926495595307, 36.44926495595307, 36.44926495595307, 36.44926495595307, 36.44926495595307, 36.44926495595307, 36.44926495595307, 36.44926495595307, 36.44926495595307, 36.44926495595307, 36.44926495595307, 54.22940596968524, 27.86102865810991, 53.710954085601124, 15.895806463742687, 36.90890406589085, 48.05376340656125, 53.04783629456515, 60.0, 29.539539912766575, 0.0, 36.44926495595307, 36.44926495595307, 36.44926495595307, 36.44926495595307, 36.44926495595307, 36.44926495595307, 36.44926495595307, 36.44926495595307, 36.44926495595307, 36.44926495595307, 36.44926495595307, 36.44926495595307, 36.44926495595307, 36.44926495595307, 36.44926495595307], [0.0, 0.0, 0.0, 0.0, 0.0, 0.0, 0.0, 0.0, 0.0, 0.0, 0.0, 0.0, 0.0, 0.0, 0.0, 18.407128085619433, 13.64823053555322, 17.297505769473204, 20.617727332515294, 6.167894161051753, 42.377760388626896, 52.08751459940198, 27.175083009609324, 8.027567409185766, 36.44926495595307, 0.0, 0.0, 0.0, 0.0, 0.0, 0.0, 0.0, 0.0, 0.0, 0.0, 0.0, 0.0, 0.0, 0.0, 0.0], [0.0, 0.0, 0.0, 0.0, 0.0, 0.0, 0.0, 0.0, 0.0, 0.0, 0.0, 0.0, 0.0, 0.0, 0.0, 18.407128085619433, 13.64823053555322, 17.297505769473204, 20.617727332515294, 6.167894161051753, 42.377760388626896, 52.08751459940198, 27.175083009609324, 8.027567409185766, 36.44926495595307, 0.0, 0.0, 0.0, 0.0, 0.0, 0.0, 0.0, 0.0, 0.0, 0.0, 0.0, 0.0, 0.0, 0.0, 0.0], [0.0, 0.0, 0.0, 0.0, 0.0, 0.0, 0.0, 0.0, 0.0, 0.0, 0.0, 0.0, 0.0, 0.0, 0.0, 18.407128085619433, 13.64823053555322, 17.297505769473204, 20.617727332515294, 6.167894161051753, 42.377760388626896, 52.08751459940198, 27.175083009609324, 8.027567409185766, 36.44926495595307, 0.0, 0.0, 0.0, 0.0, 0.0, 0.0, 0.0, 0.0, 0.0, 0.0, 0.0, 0.0, 0.0, 0.0, 0.0], [0.0, 0.0, 0.0, 0.0, 0.0, 0.0, 0.0, 0.0, 0.0, 0.0, 0.0, 0.0, 0.0, 0.0, 0.0, 18.407128085619433, 13.64823053555322, 17.297505769473204, 20.617727332515294, 6.167894161051753, 42.377760388626896, 52.08751459940198, 27.175083009609324, 8.027567409185766, 36.44926495595307, 0.0, 0.0, 0.0, 0.0, 0.0, 0.0, 0.0, 0.0, 0.0, 0.0, 0.0, 0.0, 0.0, 0.0, 0.0], [0.0, 0.0, 0.0, 0.0, 0.0, 0.0, 0.0, 0.0, 0.0, 0.0, 0.0, 0.0, 0.0, 0.0, 0.0, 18.407128085619433, 13.64823053555322, 17.297505769473204, 20.617727332515294, 6.167894161051753, 42.377760388626896, 52.08751459940198, 27.175083009609324, 8.027567409185766, 36.44926495595307, 0.0, 0.0, 0.0, 0.0, 0.0, 0.0, 0.0, 0.0, 0.0, 0.0, 0.0, 0.0, 0.0, 0.0, 0.0], [0.0, 0.0, 0.0, 0.0, 0.0, 0.0, 0.0, 0.0, 0.0, 0.0, 0.0, 0.0, 0.0, 0.0, 0.0, 18.407128085619433, 13.64823053555322, 17.297505769473204, 20.617727332515294, 6.167894161051753, 42.377760388626896, 52.08751459940198, 27.175083009609324, 8.027567409185766, 36.44926495595307, 0.0, 0.0, 0.0, 0.0, 0.0, 0.0, 0.0, 0.0, 0.0, 0.0, 0.0, 0.0, 0.0, 0.0, 0.0], [0.0, 0.0, 0.0, 0.0, 0.0, 0.0, 0.0, 0.0, 0.0, 0.0, 0.0, 0.0, 0.0, 0.0, 0.0, 18.407128085619433, 13.64823053555322, 17.297505769473204, 20.617727332515294, 6.167894161051753, 42.377760388626896, 52.08751459940198, 27.175083009609324, 8.027567409185766, 36.44926495595307, 0.0, 0.0, 0.0, 0.0, 0.0, 0.0, 0.0, 0.0, 0.0, 0.0, 0.0, 0.0, 0.0, 0.0, 0.0], [0.0, 0.0, 0.0, 0.0, 0.0, 0.0, 0.0, 0.0, 0.0, 0.0, 0.0, 0.0, 0.0, 0.0, 0.0, 18.407128085619433, 13.64823053555322, 17.297505769473204, 20.617727332515294, 6.167894161051753, 42.377760388626896, 52.08751459940198, 27.175083009609324, 8.027567409185766, 36.44926495595307, 0.0, 0.0, 0.0, 0.0, 0.0, 0.0, 0.0, 0.0, 0.0, 0.0, 0.0, 0.0, 0.0, 0.0, 0.0], [0.0, 0.0, 0.0, 0.0, 0.0, 0.0, 0.0, 0.0, 0.0, 0.0, 0.0, 0.0, 0.0, 0.0, 0.0, 18.407128085619433, 13.64823053555322, 17.297505769473204, 20.617727332515294, 6.167894161051753, 42.377760388626896, 52.08751459940198, 27.175083009609324, 8.027567409185766, 36.44926495595307, 0.0, 0.0, 0.0, 0.0, 0.0, 0.0, 0.0, 0.0, 0.0, 0.0, 0.0, 0.0, 0.0, 0.0, 0.0], [0.0, 0.0, 0.0, 0.0, 0.0, 0.0, 0.0, 0.0, 0.0, 0.0, 0.0, 0.0, 0.0, 0.0, 0.0, 18.407128085619433, 13.64823053555322, 17.297505769473204, 20.617727332515294, 6.167894161051753, 42.377760388626896, 52.08751459940198, 27.175083009609324, 8.027567409185766, 36.44926495595307, 0.0, 0.0, 0.0, 0.0, 0.0, 0.0, 0.0, 0.0, 0.0, 0.0, 0.0, 0.0, 0.0, 0.0, 0.0], [0.0, 0.0, 0.0, 0.0, 0.0, 0.0, 0.0, 0.0, 0.0, 0.0, 0.0, 0.0, 0.0, 0.0, 0.0, 18.407128085619433, 13.64823053555322, 17.297505769473204, 20.617727332515294, 6.167894161051753, 42.377760388626896, 52.08751459940198, 27.175083009609324, 8.027567409185766, 36.44926495595307, 0.0, 0.0, 0.0, 0.0, 0.0, 0.0, 0.0, 0.0, 0.0, 0.0, 0.0, 0.0, 0.0, 0.0, 0.0], [0.0, 0.0, 0.0, 0.0, 0.0, 0.0, 0.0, 0.0, 0.0, 0.0, 0.0, 0.0, 0.0, 0.0, 0.0, 18.407128085619433, 13.64823053555322, 17.297505769473204, 20.617727332515294, 6.167894161051753, 42.377760388626896, 52.08751459940198, 27.175083009609324, 8.027567409185766, 36.44926495595307, 0.0, 0.0, 0.0, 0.0, 0.0, 0.0, 0.0, 0.0, 0.0, 0.0, 0.0, 0.0, 0.0, 0.0, 0.0], [0.0, 0.0, 0.0, 0.0, 0.0, 0.0, 0.0, 0.0, 0.0, 0.0, 0.0, 0.0, 0.0, 0.0, 0.0, 18.407128085619433, 13.64823053555322, 17.297505769473204, 20.617727332515294, 6.167894161051753, 42.377760388626896, 52.08751459940198, 27.175083009609324, 8.027567409185766, 36.44926495595307, 0.0, 0.0, 0.0, 0.0, 0.0, 0.0, 0.0, 0.0, 0.0, 0.0, 0.0, 0.0, 0.0, 0.0, 0.0], [0.0, 0.0, 0.0, 0.0, 0.0, 0.0, 0.0, 0.0, 0.0, 0.0, 0.0, 0.0, 0.0, 0.0, 0.0, 18.407128085619433, 13.64823053555322, 17.297505769473204, 20.617727332515294, 6.167894161051753, 42.377760388626896, 52.08751459940198, 27.175083009609324, 8.027567409185766, 36.44926495595307, 0.0, 0.0, 0.0, 0.0, 0.0, 0.0, 0.0, 0.0, 0.0, 0.0, 0.0, 0.0, 0.0, 0.0, 0.0], [0.0, 0.0, 0.0, 0.0, 0.0, 0.0, 0.0, 0.0, 0.0, 0.0, 0.0, 0.0, 0.0, 0.0, 0.0, 18.407128085619433, 13.64823053555322, 17.297505769473204, 20.617727332515294, 6.167894161051753, 42.377760388626896, 52.08751459940198, 27.175083009609324, 8.027567409185766, 36.44926495595307, 0.0, 0.0, 0.0, 0.0, 0.0, 0.0, 0.0, 0.0, 0.0, 0.0, 0.0, 0.0, 0.0, 0.0, 0.0]];
